


































































4 31 
72 76 
2 20 
1 13 
67 38 
70 25 
63 39 
66 0 
21 
50 41 
36 
33 
71 58 
51 
10 75 
73 59 
49 35 
30 62 
6 44 
24 55 
9 46 
65 12 
11 
27 45 
48 7 
34 68 
28 3 

26 57 
69 52 
14 56 
60 15 

32 
54 
17 23 
53 
19 43 
42 
16 
47 37 
64 61 
74 
18 
29 
5 22 
8 
40 
